c File: data_files/evolved_graphs/g8079.col
c
c Auto generated graph
c
p edge 100 20
e 1 4
e 2 4
e 3 4
e 3 62
e 3 63
e 4 64
e 18 62
e 18 63
e 19 62
e 19 63
e 20 62
e 20 63
e 21 62
e 21 63
e 22 62
e 22 63
e 23 62
e 23 63
e 24 62
e 24 63
